Academic license - for non-commercial use only - expires 2022-11-10
Using license file /home/benedond/Apps/gurobi/gurobi950/gurobi.lic
Using gurobi.env file
Set parameter Threads to value 1
Changed value of parameter TimeLimit to 1200.0
   Prev: inf  Min: 0.0  Max: inf  Default: inf
Gurobi Optimizer version 9.1.2 build v9.1.2rc0 (linux64)
Thread count: 2 physical cores, 4 logical processors, using up to 1 threads
Optimize a model with 1700 rows, 840 columns and 6478 nonzeros
Model fingerprint: 0x575b19c7
Variable types: 20 continuous, 820 integer (800 binary)
Coefficient statistics:
  Matrix range     [2e-01, 3e+03]
  Objective range  [1e-03, 4e-01]
  Bounds range     [1e+00, 1e+00]
  RHS range        [1e+00, 3e+03]

---------------------------------------------------------------------------
Multi-objectives: starting optimization with 1 objectives ... 
---------------------------------------------------------------------------
---------------------------------------------------------------------------

Multi-objectives: optimize objective 1 (min avg power cons) ...
---------------------------------------------------------------------------

Optimize a model with 1700 rows, 840 columns and 6478 nonzeros
Model fingerprint: 0xf09047d0
Variable types: 20 continuous, 820 integer (800 binary)
Coefficient statistics:
  Matrix range     [2e-01, 3e+03]
  Objective range  [1e-03, 4e-01]
  Bounds range     [1e+00, 1e+00]
  RHS range        [1e+00, 3e+03]
Presolve removed 1121 rows and 547 columns
Presolve time: 0.04s
Presolved: 579 rows, 293 columns, 2143 nonzeros
Variable types: 14 continuous, 279 integer (265 binary)

Root relaxation: objective 1.578747e+00, 151 iterations, 0.00 seconds

    Nodes    |    Current Node    |     Objective Bounds      |     Work
 Expl Unexpl |  Obj  Depth IntInf | Incumbent    BestBd   Gap | It/Node Time

     0     0    1.57875    0   47          -    1.57875      -     -    0s
H    0     0                       3.7825904    1.57875  58.3%     -    0s
H    0     0                       3.7664699    1.57875  58.1%     -    0s
     0     0    1.65539    0   52    3.76647    1.65539  56.0%     -    0s
     0     0    1.65725    0   62    3.76647    1.65725  56.0%     -    0s
     0     0    1.90440    0   54    3.76647    1.90440  49.4%     -    0s
     0     0    1.93494    0   78    3.76647    1.93494  48.6%     -    0s
     0     0    2.07346    0   74    3.76647    2.07346  44.9%     -    0s
     0     0    2.08877    0   68    3.76647    2.08877  44.5%     -    0s
     0     0    2.09024    0   70    3.76647    2.09024  44.5%     -    0s
     0     0    2.09332    0   75    3.76647    2.09332  44.4%     -    0s
     0     0    2.09403    0   74    3.76647    2.09403  44.4%     -    0s
     0     0    2.09403    0   66    3.76647    2.09403  44.4%     -    0s
     0     0    2.17688    0   69    3.76647    2.17688  42.2%     -    0s
H    0     0                       3.5564940    2.17688  38.8%     -    0s
     0     0    2.19130    0   66    3.55649    2.19130  38.4%     -    0s
     0     0    2.20273    0   73    3.55649    2.20273  38.1%     -    0s
     0     0    2.20623    0   70    3.55649    2.20623  38.0%     -    0s
     0     0    2.20710    0   67    3.55649    2.20710  37.9%     -    0s
     0     0    2.20765    0   70    3.55649    2.20765  37.9%     -    0s
     0     0    2.20800    0   72    3.55649    2.20800  37.9%     -    0s
     0     0    2.20809    0   72    3.55649    2.20809  37.9%     -    0s
     0     0    2.22144    0   66    3.55649    2.22144  37.5%     -    0s
H    0     0                       3.5417470    2.22144  37.3%     -    0s
     0     0    2.23079    0   69    3.54175    2.23079  37.0%     -    0s
     0     0    2.23345    0   76    3.54175    2.23345  36.9%     -    0s
     0     0    2.23406    0   79    3.54175    2.23406  36.9%     -    0s
     0     0    2.23493    0   80    3.54175    2.23493  36.9%     -    0s
     0     0    2.23550    0   79    3.54175    2.23550  36.9%     -    0s
     0     0    2.23570    0   76    3.54175    2.23570  36.9%     -    0s
     0     0    2.23758    0   70    3.54175    2.23758  36.8%     -    0s
     0     0    2.23912    0   78    3.54175    2.23912  36.8%     -    0s
     0     0    2.23978    0   81    3.54175    2.23978  36.8%     -    0s
     0     0    2.24053    0   76    3.54175    2.24053  36.7%     -    0s
     0     0    2.24053    0   77    3.54175    2.24053  36.7%     -    0s
     0     0    2.24915    0   64    3.54175    2.24915  36.5%     -    0s
H    0     0                       3.5102651    2.24915  35.9%     -    0s
     0     0    2.25082    0   66    3.51027    2.25082  35.9%     -    0s
     0     0    2.25089    0   68    3.51027    2.25089  35.9%     -    0s
     0     0    2.25584    0   74    3.51027    2.25584  35.7%     -    0s
     0     0    2.25670    0   75    3.51027    2.25670  35.7%     -    0s
     0     0    2.25691    0   75    3.51027    2.25691  35.7%     -    0s
     0     0    2.26009    0   85    3.51027    2.26009  35.6%     -    0s
     0     0    2.26125    0   81    3.51027    2.26125  35.6%     -    0s
     0     0    2.26138    0   81    3.51027    2.26138  35.6%     -    0s
     0     0    2.26187    0   83    3.51027    2.26187  35.6%     -    0s
     0     0    2.26200    0   84    3.51027    2.26200  35.6%     -    0s
     0     0    2.26644    0   69    3.51027    2.26644  35.4%     -    0s
     0     0    2.26965    0   78    3.51027    2.26965  35.3%     -    0s
     0     0    2.27067    0   83    3.51027    2.27067  35.3%     -    0s
     0     0    2.27068    0   81    3.51027    2.27068  35.3%     -    0s
     0     0    2.27244    0   83    3.51027    2.27244  35.3%     -    0s
H    0     0                       3.3740723    2.27244  32.6%     -    0s
     0     0    2.27283    0   90    3.37407    2.27283  32.6%     -    0s
     0     0    2.27284    0   90    3.37407    2.27284  32.6%     -    0s
     0     0    2.27309    0   79    3.37407    2.27309  32.6%     -    0s
     0     0    2.27334    0   76    3.37407    2.27334  32.6%     -    0s
     0     0    2.27344    0   76    3.37407    2.27344  32.6%     -    0s
     0     0    2.27347    0   66    3.37407    2.27347  32.6%     -    0s
H    0     0                       3.2921807    2.27429  30.9%     -    0s
     0     2    2.27429    0   64    3.29218    2.27429  30.9%     -    0s
H   81    26                       3.1874338    2.28325  28.4%  20.9    0s
* 1258   221              29       3.1494458    2.86659  8.98%  32.0    1s
H 1325   223                       3.1452289    2.87794  8.50%  31.8    1s
H 1606   238                       3.1378795    2.90832  7.32%  29.9    1s
H 3277   149                       3.1353012    2.98850  4.68%  27.7    4s
* 3963    20              50       3.1117229    3.09736  0.46%  25.7    4s

Cutting planes:
  Learned: 5
  Gomory: 2
  Cover: 7
  Implied bound: 17
  Projected implied bound: 18
  MIR: 60
  Flow cover: 40
  GUB cover: 5
  RLT: 3
  Relax-and-lift: 64

Explored 3984 nodes (104133 simplex iterations) in 4.91 seconds
Thread count was 1 (of 4 available processors)

Solution count 10: 3.11172 3.1353 3.13788 ... 3.54175

Optimal solution found (tolerance 1.00e-04)
Best objective 3.111722898358e+00, best bound 3.111722898358e+00, gap 0.0000%

---------------------------------------------------------------------------
Multi-objectives: solved in 4.91 seconds, solution count 10

